1654066800
1654084800
1654153200
1654171200
1654239600
1654250400
1654254000
1654261200
1654498800
1654516800
1654585200
1654603200
1654671600
1654689600
1654844400
1654855200
1654858800
1654866000
1655103600
1655121600
1655190000
1655208000
1655276400
1655294400
1655362800
1655380800
1655449200
1655460000
1655463600
1655470800
1655708400
1655726400
1655794800
1655812800
1655881200
1655899200
1655967600
1655985600
1656054000
1656064800
1656068400
1656075600
1656399600
1656417600
1656486000
1656504000
1656572400
1656590400
